(set-logic QF_BV)
(declare-fun _substvar_1491_ () (_ BitVec 1))
(declare-fun _substvar_1559_ () (_ BitVec 91))
(declare-fun _substvar_1571_ () (_ BitVec 91))
(declare-fun shift2 () (_ BitVec 91))
(assert (= (bvnot (_ bv0 91)) (bvor (_ bv0 91) (bvor _substvar_1559_ (bvor shift2 _substvar_1571_)))))
(define-fun bitsumhelper ((x (_ BitVec 13))) (_ BitVec 13) (bvand x (bvsub x (_ bv1 13))))
(assert (not (= (_ bv0 13) (bitsumhelper (bitsumhelper (bitsumhelper (bitsumhelper (concat ((_ extract 2 2) _substvar_1559_) (concat _substvar_1491_ (concat ((_ extract 16 16) _substvar_1559_) (concat ((_ extract 23 23) _substvar_1559_) (concat ((_ extract 30 30) _substvar_1559_) (_ bv0 8)))))))))))))
(assert (not (= (_ bv0 13) (bitsumhelper (bitsumhelper (bitsumhelper (bitsumhelper (concat (_ bv0 1) (concat (_ bv0 1) (concat (_ bv0 1) (concat (_ bv0 1) (concat (_ bv0 1) (concat (_ bv0 1) (concat ((_ extract 45 45) shift2) (concat ((_ extract 52 52) shift2) (concat ((_ extract 59 59) shift2) (concat ((_ extract 66 66) shift2) (concat ((_ extract 73 73) shift2) (concat ((_ extract 80 80) shift2) ((_ extract 87 87) shift2))))))))))))))))))))
(assert (= (_ bv0 13) (bitsumhelper (bitsumhelper (bitsumhelper (bitsumhelper (bitsumhelper (concat (_ bv0 1) (concat (_ bv0 1) (concat ((_ extract 18 18) shift2) (concat ((_ extract 25 25) shift2) (concat (_ bv0 1) (concat (_ bv0 1) (concat (_ bv0 1) (concat (_ bv0 1) (concat ((_ extract 60 60) shift2) (concat ((_ extract 67 67) shift2) (concat ((_ extract 74 74) shift2) (concat ((_ extract 81 81) shift2) ((_ extract 88 88) shift2))))))))))))))))))))
(assert (= (_ bv0 13) (bitsumhelper (bitsumhelper (bitsumhelper (bitsumhelper (bitsumhelper (concat (_ bv0 1) (concat (_ bv0 1) (concat (_ bv0 1) (concat (_ bv0 1) (concat (_ bv0 1) (concat ((_ extract 40 40) shift2) (concat ((_ extract 47 47) shift2) (concat ((_ extract 54 54) shift2) (concat ((_ extract 61 61) shift2) (concat ((_ extract 68 68) shift2) (concat ((_ extract 75 75) shift2) (concat (_ bv0 1) ((_ extract 89 89) shift2))))))))))))))))))))
(assert (= (_ bv0 13) (bitsumhelper (bitsumhelper (bitsumhelper (bitsumhelper (bitsumhelper (concat ((_ extract 6 6) _substvar_1559_) (concat ((_ extract 13 13) _substvar_1559_) (concat ((_ extract 20 20) _substvar_1559_) (concat ((_ extract 27 27) _substvar_1559_) (concat ((_ extract 34 34) _substvar_1559_) (concat ((_ extract 41 41) _substvar_1559_) (concat ((_ extract 48 48) _substvar_1559_) (concat ((_ extract 55 55) _substvar_1559_) (concat ((_ extract 62 62) _substvar_1559_) (concat ((_ extract 69 69) _substvar_1559_) (concat (_ bv0 1) (concat ((_ extract 83 83) _substvar_1559_) ((_ extract 90 90) _substvar_1559_))))))))))))))))))))
(assert (= (_ bv0 13) (bitsumhelper (bitsumhelper (bitsumhelper (bitsumhelper (bitsumhelper (concat ((_ extract 6 6) shift2) (concat ((_ extract 13 13) shift2) (concat ((_ extract 20 20) shift2) (concat ((_ extract 27 27) shift2) (concat ((_ extract 34 34) shift2) (concat ((_ extract 41 41) shift2) (concat ((_ extract 48 48) shift2) (concat ((_ extract 55 55) shift2) (concat ((_ extract 62 62) shift2) (concat ((_ extract 69 69) shift2) (concat ((_ extract 76 76) shift2) (concat ((_ extract 83 83) shift2) ((_ extract 90 90) shift2))))))))))))))))))))
(assert (= (_ bv0 13) (bitsumhelper (concat ((_ extract 6 6) _substvar_1571_) (concat ((_ extract 13 13) _substvar_1571_) (concat ((_ extract 20 20) _substvar_1571_) (concat ((_ extract 27 27) _substvar_1571_) (concat ((_ extract 34 34) _substvar_1571_) (concat ((_ extract 41 41) _substvar_1571_) (concat ((_ extract 48 48) _substvar_1571_) (concat ((_ extract 55 55) _substvar_1571_) (concat ((_ extract 62 62) _substvar_1571_) (concat ((_ extract 69 69) _substvar_1571_) (concat ((_ extract 76 76) _substvar_1571_) (concat ((_ extract 83 83) _substvar_1571_) ((_ extract 90 90) _substvar_1571_))))))))))))))))
(check-sat)
(exit)
